
******************************************************************************
This program contains Ipopt, a library for large-scale nonlinear optimization.
 Ipopt is released as open source code under the Eclipse Public License (EPL).
         For more information visit http://projects.coin-or.org/Ipopt
******************************************************************************

This is Ipopt version 3.12.6, running with linear solver ma57.

Number of nonzeros in equality constraint Jacobian...:        0
Number of nonzeros in inequality constraint Jacobian.:        4
Number of nonzeros in Lagrangian Hessian.............:        3

Total number of variables............................:        2
                     variables with only lower bounds:        0
                variables with lower and upper bounds:        0
                     variables with only upper bounds:        1
Total number of equality constraints.................:        0
Total number of inequality constraints...............:        2
        inequality constraints with only lower bounds:        2
   inequality constraints with lower and upper bounds:        0
        inequality constraints with only upper bounds:        0

iter    objective    inf_pr   inf_du lg(mu)  ||d||  lg(rg) alpha_du alpha_pr  ls
   0  9.0900000e+02 3.00e+00 3.92e+01  -1.0 0.00e+00    -  0.00e+00 0.00e+00   0
   1  8.5884407e+02 2.96e+00 1.08e+02  -1.0 1.44e+00    -  1.00e+00 1.62e-02f  1
   2  2.5060589e+01 9.95e-01 1.78e+02  -1.0 1.99e+00    -  1.00e+00 1.00e+00f  1
   3  9.7005136e+00 1.03e+00 1.86e+02  -1.0 2.38e+00    -  2.35e-01 2.32e-01f  1
   4  9.6107637e+00 1.03e+00 1.79e+02  -1.0 7.68e-01   4.0 1.46e-02 1.63e-03h  1
   5  7.5588830e+00 8.01e-01 3.69e+02  -1.0 2.08e+00    -  7.24e-03 2.50e-01f  3
   6  7.5582218e+00 8.02e-01 3.63e+02  -1.0 1.09e+00   3.5 4.32e-02 2.42e-03h  1
   7  7.5679906e+00 8.02e-01 3.64e+02  -1.0 2.20e+00   3.0 4.49e-04 3.62e-04h  1
   8  8.1724925e+00 7.35e-01 2.04e+04  -1.0 2.38e+00   3.5 1.00e+00 7.65e-02f  1
   9  8.2506800e+00 7.34e-01 1.88e+04  -1.0 2.12e+00    -  7.93e-02 1.87e-03h  1
iter    objective    inf_pr   inf_du lg(mu)  ||d||  lg(rg) alpha_du alpha_pr  ls
  10  3.0775853e+02 0.00e+00 1.67e+04  -1.0 2.16e+00    -  4.38e-02 1.00e+00H  1
  11  3.0812497e+02 0.00e+00 1.64e+02  -1.0 7.10e-03    -  9.92e-01 1.00e+00h  1
  12  3.0955207e+02 0.00e+00 3.54e-03  -1.0 1.31e-02    -  1.00e+00 1.00e+00f  1
  13  3.0664130e+02 0.00e+00 2.61e-04  -2.5 2.69e-02    -  1.00e+00 1.00e+00f  1
  14  3.0650723e+02 0.00e+00 9.34e-07  -3.8 1.27e-03    -  1.00e+00 1.00e+00h  1
  15  3.0650006e+02 0.00e+00 2.84e-09  -5.7 7.15e-05    -  1.00e+00 1.00e+00h  1
  16  3.0649998e+02 0.00e+00 4.26e-13  -8.6 8.86e-07    -  1.00e+00 1.00e+00h  1

Number of Iterations....: 16

                                   (scaled)                 (unscaled)
Objective...............:   1.2738984854970600e+01    3.0649997561059263e+02
Dual infeasibility......:   4.2632564145606011e-13    1.0257394933432806e-11
Constraint violation....:   0.0000000000000000e+00    0.0000000000000000e+00
Complementarity.........:   2.5062669551435457e-09    6.0300782940753710e-08
Overall NLP error.......:   2.5062669551435457e-09    6.0300782940753710e-08


Number of objective function evaluations             = 21
Number of objective gradient evaluations             = 17
Number of equality constraint evaluations            = 0
Number of inequality constraint evaluations          = 21
Number of equality constraint Jacobian evaluations   = 0
Number of inequality constraint Jacobian evaluations = 17
Number of Lagrangian Hessian evaluations             = 16
Total CPU secs in IPOPT (w/o function evaluations)   =      0.003
Total CPU secs in NLP function evaluations           =      0.003

EXIT: Optimal Solution Found.

************************ CUTEst statistics ************************


 Package used            :  IPOPT
 Problem                 :  HS15      
 # variables             =               2
 # constraints           =               2
 # objective functions   =        0.3900000E+02
 # objective gradients   =        0.1800000E+02
 # objective Hessians    =        0.1700000E+02
 # Hessian-vector prdct  =        0.0000000E+00
 # constraints functions =        0.4000000E+02
 # constraints gradients =        0.1900000E+02
 # constraints Hessians  =        0.1700000E+02
 Exit code               =               0
 Final f                 =   0.3065000E+03
 Set up time             =            0.00 seconds
 Solve time              =            0.02 seconds


******************************************************************

System Time =       0.0049999999 s.
